(set-info :source |printed by MathSAT|)
(declare-fun call_mesi.ite21.next () Int)
(declare-fun call_mesi.ite3 () Int)
(declare-fun invalid_me.next () Int)
(declare-fun env () Bool)
(declare-fun call_mesi.ite4.next () Int)
(declare-fun call_mesi.ite17.next () Int)
(declare-fun call_mesi.garde_me2.next () Bool)
(declare-fun call_mesi.flby2 () Int)
(declare-fun call_mesi.ite31.next () Int)
(declare-fun call_mesi.ite15.next () Int)
(declare-fun call_mesi.ite14 () Int)
(declare-fun param_etat_me3 () Bool)
(declare-fun call_mesi.ite30 () Int)
(declare-fun call_mesi.ite31 () Int)
(declare-fun call_mesi.ite29.next () Int)
(declare-fun call_mesi.ite19 () Int)
(declare-fun call_mesi.ite22 () Int)
(declare-fun call_mesi.shared_me () Int)
(declare-fun call_mesi.ite23.next () Int)
(declare-fun call_mesi.ite24 () Int)
(declare-fun call_mesi.ite5 () Int)
(declare-fun call_mesi.ite22.next () Int)
(declare-fun call_mesi.ite () Int)
(declare-fun call_mesi.ite8.next () Int)
(declare-fun call_mesi.ite2 () Int)
(declare-fun call_mesi.flby4.next () Int)
(declare-fun call_mesi.ite20.next () Int)
(declare-fun call_mesi.modified_me.next () Int)
(declare-fun call_mesi.modified_me () Int)
(declare-fun exclusive_me () Int)
(declare-fun call_mesi.ite25 () Int)
(declare-fun shared_me.next () Int)
(declare-fun env.next () Bool)
(declare-fun param_etat_me1 () Bool)
(declare-fun param_etat_me3.next () Bool)
(declare-fun invalid_me () Int)
(declare-fun call_Sofar.flby.next () Bool)
(declare-fun call_mesi.ite16 () Int)
(declare-fun call_mesi.ite5.next () Int)
(declare-fun call_mesi.garde_me3.next () Bool)
(declare-fun call_mesi.ite11 () Int)
(declare-fun call_mesi.ite30.next () Int)
(declare-fun call_mesi.ite10.next () Int)
(declare-fun call_excludes4.excludes () Bool)
(declare-fun call_Sofar.Sofar () Bool)
(declare-fun call_mesi.exclusive_me () Int)
(declare-fun call_mesi.invalid_me.next () Int)
(declare-fun call_mesi.ite11.next () Int)
(declare-fun call_mesi.shared_me.next () Int)
(declare-fun call_mesi.flby3.next () Int)
(declare-fun call_mesi.ite16.next () Int)
(declare-fun call_mesi.ite14.next () Int)
(declare-fun call_mesi.ite29 () Int)
(declare-fun call_mesi.ite27 () Int)
(declare-fun call_mesi.flby4 () Int)
(declare-fun call_mesi.ite7.next () Int)
(declare-fun call_mesi.ite13.next () Int)
(declare-fun call_mesi.ite19.next () Int)
(declare-fun call_mesi.ite32 () Int)
(declare-fun param_etat_me4.next () Bool)
(declare-fun call_mesi.ite13 () Int)
(declare-fun call_mesi.flby2.next () Int)
(declare-fun call_mesi.ite25.next () Int)
(declare-fun exclusive_me.next () Int)
(declare-fun call_mesi.flby () Int)
(declare-fun call_mesi.ite.next () Int)
(declare-fun call_mesi.ite6 () Int)
(declare-fun call_mesi.ite12.next () Int)
(declare-fun shared_me () Int)
(declare-fun call_Sofar.Sofar.next () Bool)
(declare-fun call_mesi.ite26 () Int)
(declare-fun param_etat_me4 () Bool)
(declare-fun call_mesi.ite21 () Int)
(declare-fun call_mesi.ite26.next () Int)
(declare-fun call_mesi.ite32.next () Int)
(declare-fun call_mesi.garde_me1.next () Bool)
(declare-fun call_mesi.ite9.next () Int)
(declare-fun call_mesi.ite8 () Int)
(declare-fun call_mesi.ite28.next () Int)
(declare-fun param_etat_me2.next () Bool)
(declare-fun call_mesi.ite23 () Int)
(declare-fun _OK_.next () Bool)
(declare-fun call_mesi.ite27.next () Int)
(declare-fun call_mesi.ite18.next () Int)
(declare-fun modified_me () Int)
(declare-fun call_mesi.ite18 () Int)
(declare-fun call_mesi.ite2.next () Int)
(declare-fun call_Sofar.flby () Bool)
(declare-fun call_mesi.exclusive_me.next () Int)
(declare-fun call_mesi.flby.next () Int)
(declare-fun param_etat_me2 () Bool)
(declare-fun _OK_ () Bool)
(declare-fun param_etat_me1.next () Bool)
(declare-fun call_excludes4.excludes.next () Bool)
(declare-fun call_mesi.invalid_me () Int)
(declare-fun call_mesi.ite24.next () Int)
(declare-fun call_mesi.ite10 () Int)
(declare-fun call_mesi.ite17 () Int)
(declare-fun call_mesi.ite6.next () Int)
(declare-fun call_mesi.ite9 () Int)
(declare-fun call_mesi.ite15 () Int)
(declare-fun call_mesi.garde_me4.next () Bool)
(declare-fun call_mesi.flby3 () Int)
(declare-fun call_mesi.ite3.next () Int)
(declare-fun call_mesi.ite7 () Int)
(declare-fun modified_me.next () Int)
(define-fun .def_1150 () Bool (= call_Sofar.flby.next call_Sofar.Sofar.next))
(define-fun .def_1145 () Bool (and param_etat_me4.next param_etat_me3.next))
(define-fun .def_1140 () Bool (and param_etat_me1.next param_etat_me2.next))
(define-fun .def_1139 () Bool (and param_etat_me3.next param_etat_me1.next))
(define-fun .def_1141 () Bool (or .def_1139 .def_1140))
(define-fun .def_1138 () Bool (and param_etat_me4.next param_etat_me1.next))
(define-fun .def_1142 () Bool (or .def_1138 .def_1141))
(define-fun .def_1137 () Bool (and param_etat_me3.next param_etat_me2.next))
(define-fun .def_1143 () Bool (or .def_1137 .def_1142))
(define-fun .def_1136 () Bool (and param_etat_me4.next param_etat_me2.next))
(define-fun .def_1144 () Bool (or .def_1136 .def_1143))
(define-fun .def_1146 () Bool (or .def_1144 .def_1145))
(define-fun .def_1147 () Bool (not .def_1146))
(define-fun .def_1148 () Bool (= call_excludes4.excludes.next .def_1147))
(define-fun .def_1134 () Bool (= call_mesi.flby4.next call_mesi.invalid_me.next))
(define-fun .def_1132 () Bool (= call_mesi.flby3.next call_mesi.shared_me.next))
(define-fun .def_1130 () Bool (= call_mesi.flby2.next call_mesi.exclusive_me.next))
(define-fun .def_1128 () Bool (= call_mesi.flby.next call_mesi.modified_me.next))
(define-fun .def_1124 () Bool (= call_mesi.ite30.next call_mesi.ite31.next))
(define-fun .def_1125 () Bool (or param_etat_me2.next .def_1124))
(define-fun .def_1121 () Bool (= call_mesi.ite26.next call_mesi.ite31.next))
(define-fun .def_1106 () Bool (not param_etat_me2.next))
(define-fun .def_1122 () Bool (or .def_1106 .def_1121))
(define-fun .def_1118 () Bool (= call_mesi.ite22.next call_mesi.ite23.next))
(define-fun .def_1119 () Bool (or param_etat_me2.next .def_1118))
(define-fun .def_1115 () Bool (= call_mesi.ite18.next call_mesi.ite23.next))
(define-fun .def_1116 () Bool (or .def_1106 .def_1115))
(define-fun .def_1112 () Bool (= call_mesi.ite14.next call_mesi.ite15.next))
(define-fun .def_1113 () Bool (or param_etat_me2.next .def_1112))
(define-fun .def_1109 () Bool (= call_mesi.ite10.next call_mesi.ite15.next))
(define-fun .def_1110 () Bool (or .def_1106 .def_1109))
(define-fun .def_1105 () Bool (= call_mesi.ite2.next call_mesi.ite7.next))
(define-fun .def_1107 () Bool (or .def_1105 .def_1106))
(define-fun .def_1102 () Bool (= call_mesi.ite6.next call_mesi.ite7.next))
(define-fun .def_1104 () Bool (or .def_1102 param_etat_me2.next))
(define-fun .def_1108 () Bool (and .def_1104 .def_1107))
(define-fun .def_1111 () Bool (and .def_1108 .def_1110))
(define-fun .def_1114 () Bool (and .def_1111 .def_1113))
(define-fun .def_1117 () Bool (and .def_1114 .def_1116))
(define-fun .def_1120 () Bool (and .def_1117 .def_1119))
(define-fun .def_1123 () Bool (and .def_1120 .def_1122))
(define-fun .def_1126 () Bool (and .def_1123 .def_1125))
(define-fun .def_1098 () Bool (= call_mesi.ite32.next call_mesi.ite31.next))
(define-fun .def_1099 () Bool (or param_etat_me1.next .def_1098))
(define-fun .def_1094 () Bool (= call_mesi.ite25.next call_mesi.ite32.next))
(define-fun .def_1077 () Bool (not param_etat_me1.next))
(define-fun .def_1095 () Bool (or .def_1077 .def_1094))
(define-fun .def_1091 () Bool (= call_mesi.ite24.next call_mesi.ite23.next))
(define-fun .def_1092 () Bool (or param_etat_me1.next .def_1091))
(define-fun .def_1087 () Bool (= call_mesi.ite17.next call_mesi.ite24.next))
(define-fun .def_1088 () Bool (or .def_1077 .def_1087))
(define-fun .def_1084 () Bool (= call_mesi.ite16.next call_mesi.ite15.next))
(define-fun .def_1085 () Bool (or param_etat_me1.next .def_1084))
(define-fun .def_1080 () Bool (= call_mesi.ite9.next call_mesi.ite16.next))
(define-fun .def_1081 () Bool (or .def_1077 .def_1080))
(define-fun .def_1076 () Bool (= call_mesi.ite.next call_mesi.ite8.next))
(define-fun .def_1078 () Bool (or .def_1076 .def_1077))
(define-fun .def_1073 () Bool (= call_mesi.ite8.next call_mesi.ite7.next))
(define-fun .def_1075 () Bool (or .def_1073 param_etat_me1.next))
(define-fun .def_1079 () Bool (and .def_1075 .def_1078))
(define-fun .def_1082 () Bool (and .def_1079 .def_1081))
(define-fun .def_1086 () Bool (and .def_1082 .def_1085))
(define-fun .def_1089 () Bool (and .def_1086 .def_1088))
(define-fun .def_1093 () Bool (and .def_1089 .def_1092))
(define-fun .def_1096 () Bool (and .def_1093 .def_1095))
(define-fun .def_1100 () Bool (and .def_1096 .def_1099))
(define-fun .def_1070 () Bool (= env.next call_Sofar.Sofar.next))
(define-fun .def_1067 () Bool (= invalid_me.next call_mesi.invalid_me.next))
(define-fun .def_1063 () Bool (= shared_me.next call_mesi.shared_me.next))
(define-fun .def_1059 () Bool (= exclusive_me.next call_mesi.exclusive_me.next))
(define-fun .def_1055 () Bool (= modified_me.next call_mesi.modified_me.next))
(define-fun .def_1050 () Bool (= call_mesi.ite29.next call_mesi.ite30.next))
(define-fun .def_1051 () Bool (or param_etat_me3.next .def_1050))
(define-fun .def_1047 () Bool (= call_mesi.ite27.next call_mesi.ite30.next))
(define-fun .def_1029 () Bool (not param_etat_me3.next))
(define-fun .def_1048 () Bool (or .def_1029 .def_1047))
(define-fun .def_1043 () Bool (= call_mesi.ite21.next call_mesi.ite22.next))
(define-fun .def_1044 () Bool (or param_etat_me3.next .def_1043))
(define-fun .def_1040 () Bool (= call_mesi.ite19.next call_mesi.ite22.next))
(define-fun .def_1041 () Bool (or .def_1029 .def_1040))
(define-fun .def_1036 () Bool (= call_mesi.ite13.next call_mesi.ite14.next))
(define-fun .def_1037 () Bool (or param_etat_me3.next .def_1036))
(define-fun .def_1033 () Bool (= call_mesi.ite11.next call_mesi.ite14.next))
(define-fun .def_1034 () Bool (or .def_1029 .def_1033))
(define-fun .def_1028 () Bool (= call_mesi.ite3.next call_mesi.ite6.next))
(define-fun .def_1030 () Bool (or .def_1028 .def_1029))
(define-fun .def_1025 () Bool (= call_mesi.ite5.next call_mesi.ite6.next))
(define-fun .def_1027 () Bool (or .def_1025 param_etat_me3.next))
(define-fun .def_1031 () Bool (and .def_1027 .def_1030))
(define-fun .def_1035 () Bool (and .def_1031 .def_1034))
(define-fun .def_1038 () Bool (and .def_1035 .def_1037))
(define-fun .def_1042 () Bool (and .def_1038 .def_1041))
(define-fun .def_1045 () Bool (and .def_1042 .def_1044))
(define-fun .def_1049 () Bool (and .def_1045 .def_1048))
(define-fun .def_1052 () Bool (and .def_1049 .def_1051))
(define-fun .def_1021 () Bool (<= modified_me.next 2))
(define-fun .def_1020 () Bool (not env.next))
(define-fun .def_1022 () Bool (or .def_1020 .def_1021))
(define-fun .def_1023 () Bool (= _OK_.next .def_1022))
(define-fun .def_1053 () Bool (and .def_1023 .def_1052))
(define-fun .def_1056 () Bool (and .def_1053 .def_1055))
(define-fun .def_1060 () Bool (and .def_1056 .def_1059))
(define-fun .def_1064 () Bool (and .def_1060 .def_1063))
(define-fun .def_1068 () Bool (and .def_1064 .def_1067))
(define-fun .def_1071 () Bool (and .def_1068 .def_1070))
(define-fun .def_1101 () Bool (and .def_1071 .def_1100))
(define-fun .def_1127 () Bool (and .def_1101 .def_1126))
(define-fun .def_1129 () Bool (and .def_1127 .def_1128))
(define-fun .def_1131 () Bool (and .def_1129 .def_1130))
(define-fun .def_1133 () Bool (and .def_1131 .def_1132))
(define-fun .def_1135 () Bool (and .def_1133 .def_1134))
(define-fun .def_1149 () Bool (and .def_1135 .def_1148))
(define-fun .def_1151 () Bool (and .def_1149 .def_1150))
(define-fun .def_802 () Bool (= call_Sofar.flby call_Sofar.Sofar))
(define-fun .def_797 () Bool (and param_etat_me4 param_etat_me3))
(define-fun .def_792 () Bool (and param_etat_me1 param_etat_me2))
(define-fun .def_791 () Bool (and param_etat_me3 param_etat_me1))
(define-fun .def_793 () Bool (or .def_791 .def_792))
(define-fun .def_790 () Bool (and param_etat_me4 param_etat_me1))
(define-fun .def_794 () Bool (or .def_790 .def_793))
(define-fun .def_789 () Bool (and param_etat_me3 param_etat_me2))
(define-fun .def_795 () Bool (or .def_789 .def_794))
(define-fun .def_788 () Bool (and param_etat_me4 param_etat_me2))
(define-fun .def_796 () Bool (or .def_788 .def_795))
(define-fun .def_798 () Bool (or .def_796 .def_797))
(define-fun .def_799 () Bool (not .def_798))
(define-fun .def_800 () Bool (= call_excludes4.excludes .def_799))
(define-fun .def_786 () Bool (= call_mesi.flby4 call_mesi.invalid_me))
(define-fun .def_784 () Bool (= call_mesi.flby3 call_mesi.shared_me))
(define-fun .def_782 () Bool (= call_mesi.flby2 call_mesi.exclusive_me))
(define-fun .def_780 () Bool (= call_mesi.flby call_mesi.modified_me))
(define-fun .def_776 () Bool (= call_mesi.ite30 call_mesi.ite31))
(define-fun .def_777 () Bool (or param_etat_me2 .def_776))
(define-fun .def_773 () Bool (= call_mesi.ite31 call_mesi.ite26))
(define-fun .def_755 () Bool (not param_etat_me2))
(define-fun .def_774 () Bool (or .def_755 .def_773))
(define-fun .def_769 () Bool (= call_mesi.ite22 call_mesi.ite23))
(define-fun .def_770 () Bool (or param_etat_me2 .def_769))
(define-fun .def_766 () Bool (= call_mesi.ite23 call_mesi.ite18))
(define-fun .def_767 () Bool (or .def_755 .def_766))
(define-fun .def_762 () Bool (= call_mesi.ite14 call_mesi.ite15))
(define-fun .def_763 () Bool (or param_etat_me2 .def_762))
(define-fun .def_759 () Bool (= call_mesi.ite15 call_mesi.ite10))
(define-fun .def_760 () Bool (or .def_755 .def_759))
(define-fun .def_754 () Bool (= call_mesi.ite7 call_mesi.ite2))
(define-fun .def_756 () Bool (or .def_754 .def_755))
(define-fun .def_750 () Bool (= call_mesi.ite6 call_mesi.ite7))
(define-fun .def_752 () Bool (or .def_750 param_etat_me2))
(define-fun .def_757 () Bool (and .def_752 .def_756))
(define-fun .def_761 () Bool (and .def_757 .def_760))
(define-fun .def_764 () Bool (and .def_761 .def_763))
(define-fun .def_768 () Bool (and .def_764 .def_767))
(define-fun .def_771 () Bool (and .def_768 .def_770))
(define-fun .def_775 () Bool (and .def_771 .def_774))
(define-fun .def_778 () Bool (and .def_775 .def_777))
(define-fun .def_746 () Bool (= call_mesi.ite32 call_mesi.ite31))
(define-fun .def_747 () Bool (or param_etat_me1 .def_746))
(define-fun .def_742 () Bool (= call_mesi.ite25 call_mesi.ite32))
(define-fun .def_720 () Bool (not param_etat_me1))
(define-fun .def_743 () Bool (or .def_720 .def_742))
(define-fun .def_737 () Bool (= call_mesi.ite24 call_mesi.ite23))
(define-fun .def_738 () Bool (or param_etat_me1 .def_737))
(define-fun .def_733 () Bool (= call_mesi.ite17 call_mesi.ite24))
(define-fun .def_734 () Bool (or .def_720 .def_733))
(define-fun .def_728 () Bool (= call_mesi.ite16 call_mesi.ite15))
(define-fun .def_729 () Bool (or param_etat_me1 .def_728))
(define-fun .def_724 () Bool (= call_mesi.ite9 call_mesi.ite16))
(define-fun .def_725 () Bool (or .def_720 .def_724))
(define-fun .def_719 () Bool (= call_mesi.ite call_mesi.ite8))
(define-fun .def_721 () Bool (or .def_719 .def_720))
(define-fun .def_716 () Bool (= call_mesi.ite8 call_mesi.ite7))
(define-fun .def_718 () Bool (or .def_716 param_etat_me1))
(define-fun .def_722 () Bool (and .def_718 .def_721))
(define-fun .def_726 () Bool (and .def_722 .def_725))
(define-fun .def_730 () Bool (and .def_726 .def_729))
(define-fun .def_735 () Bool (and .def_730 .def_734))
(define-fun .def_739 () Bool (and .def_735 .def_738))
(define-fun .def_744 () Bool (and .def_739 .def_743))
(define-fun .def_748 () Bool (and .def_744 .def_747))
(define-fun .def_712 () Bool (= env call_Sofar.Sofar))
(define-fun .def_709 () Bool (= invalid_me call_mesi.invalid_me))
(define-fun .def_705 () Bool (= shared_me call_mesi.shared_me))
(define-fun .def_701 () Bool (= exclusive_me call_mesi.exclusive_me))
(define-fun .def_697 () Bool (= modified_me call_mesi.modified_me))
(define-fun .def_692 () Bool (= call_mesi.ite29 call_mesi.ite30))
(define-fun .def_693 () Bool (or param_etat_me3 .def_692))
(define-fun .def_689 () Bool (= call_mesi.ite27 call_mesi.ite30))
(define-fun .def_670 () Bool (not param_etat_me3))
(define-fun .def_690 () Bool (or .def_670 .def_689))
(define-fun .def_684 () Bool (= call_mesi.ite21 call_mesi.ite22))
(define-fun .def_685 () Bool (or param_etat_me3 .def_684))
(define-fun .def_681 () Bool (= call_mesi.ite19 call_mesi.ite22))
(define-fun .def_682 () Bool (or .def_670 .def_681))
(define-fun .def_677 () Bool (= call_mesi.ite13 call_mesi.ite14))
(define-fun .def_678 () Bool (or param_etat_me3 .def_677))
(define-fun .def_674 () Bool (= call_mesi.ite11 call_mesi.ite14))
(define-fun .def_675 () Bool (or .def_670 .def_674))
(define-fun .def_669 () Bool (= call_mesi.ite3 call_mesi.ite6))
(define-fun .def_671 () Bool (or .def_669 .def_670))
(define-fun .def_666 () Bool (= call_mesi.ite5 call_mesi.ite6))
(define-fun .def_668 () Bool (or .def_666 param_etat_me3))
(define-fun .def_672 () Bool (and .def_668 .def_671))
(define-fun .def_676 () Bool (and .def_672 .def_675))
(define-fun .def_679 () Bool (and .def_676 .def_678))
(define-fun .def_683 () Bool (and .def_679 .def_682))
(define-fun .def_686 () Bool (and .def_683 .def_685))
(define-fun .def_691 () Bool (and .def_686 .def_690))
(define-fun .def_694 () Bool (and .def_691 .def_693))
(define-fun .def_662 () Bool (<= modified_me 2))
(define-fun .def_661 () Bool (not env))
(define-fun .def_663 () Bool (or .def_661 .def_662))
(define-fun .def_664 () Bool (= _OK_ .def_663))
(define-fun .def_695 () Bool (and .def_664 .def_694))
(define-fun .def_698 () Bool (and .def_695 .def_697))
(define-fun .def_702 () Bool (and .def_698 .def_701))
(define-fun .def_706 () Bool (and .def_702 .def_705))
(define-fun .def_710 () Bool (and .def_706 .def_709))
(define-fun .def_713 () Bool (and .def_710 .def_712))
(define-fun .def_749 () Bool (and .def_713 .def_748))
(define-fun .def_779 () Bool (and .def_749 .def_778))
(define-fun .def_781 () Bool (and .def_779 .def_780))
(define-fun .def_783 () Bool (and .def_781 .def_782))
(define-fun .def_785 () Bool (and .def_783 .def_784))
(define-fun .def_787 () Bool (and .def_785 .def_786))
(define-fun .def_801 () Bool (and .def_787 .def_800))
(define-fun .def_803 () Bool (and .def_801 .def_802))
(define-fun .def_1152 () Bool (and .def_803 .def_1151))
(define-fun .def_1011 () Bool (<= 0 modified_me.next))
(define-fun .def_1013 () Bool (and .def_1011 call_excludes4.excludes.next))
(define-fun .def_1014 () Bool (or call_Sofar.Sofar .def_1013))
(define-fun .def_1016 () Bool (= .def_1014 call_Sofar.flby.next))
(define-fun .def_1008 () Bool (= call_mesi.ite32.next call_mesi.flby4.next))
(define-fun .def_1004 () Bool (= call_mesi.ite24.next call_mesi.flby3.next))
(define-fun .def_1000 () Bool (= call_mesi.ite16.next call_mesi.flby2.next))
(define-fun .def_996 () Bool (= call_mesi.ite8.next call_mesi.flby.next))
(define-fun .def_964 () Bool (<= 1 call_mesi.invalid_me))
(define-fun .def_991 () Bool (= call_mesi.garde_me4.next .def_964))
(define-fun .def_988 () Bool (= call_mesi.ite20.next 0))
(define-fun .def_867 () Bool (not call_mesi.garde_me4.next))
(define-fun .def_989 () Bool (or .def_867 .def_988))
(define-fun .def_985 () Bool (= call_mesi.ite4.next 0))
(define-fun .def_986 () Bool (or .def_867 .def_985))
(define-fun .def_983 () Bool (= call_mesi.ite12.next 1))
(define-fun .def_984 () Bool (or .def_867 .def_983))
(define-fun .def_987 () Bool (and .def_984 .def_986))
(define-fun .def_990 () Bool (and .def_987 .def_989))
(define-fun .def_992 () Bool (and .def_990 .def_991))
(define-fun .def_979 () Bool (<= 1 call_mesi.shared_me))
(define-fun .def_980 () Bool (= call_mesi.garde_me3.next .def_979))
(define-fun .def_976 () Bool (= call_mesi.ite19.next 0))
(define-fun .def_853 () Bool (not call_mesi.garde_me3.next))
(define-fun .def_977 () Bool (or .def_853 .def_976))
(define-fun .def_973 () Bool (= call_mesi.ite3.next 0))
(define-fun .def_974 () Bool (or .def_853 .def_973))
(define-fun .def_971 () Bool (= call_mesi.ite11.next 1))
(define-fun .def_972 () Bool (or .def_853 .def_971))
(define-fun .def_975 () Bool (and .def_972 .def_974))
(define-fun .def_978 () Bool (and .def_975 .def_977))
(define-fun .def_981 () Bool (and .def_978 .def_980))
(define-fun .def_968 () Bool (<= 1 call_mesi.exclusive_me))
(define-fun .def_969 () Bool (= call_mesi.garde_me2.next .def_968))
(define-fun .def_965 () Bool (= call_mesi.garde_me1.next .def_964))
(define-fun .def_961 () Bool (= call_mesi.ite.next 0))
(define-fun .def_839 () Bool (not call_mesi.garde_me1.next))
(define-fun .def_962 () Bool (or .def_839 .def_961))
(define-fun .def_959 () Bool (= call_mesi.ite9.next 0))
(define-fun .def_960 () Bool (or .def_839 .def_959))
(define-fun .def_963 () Bool (and .def_960 .def_962))
(define-fun .def_966 () Bool (and .def_963 .def_965))
(define-fun .def_955 () Bool (= call_mesi.invalid_me call_mesi.ite28.next))
(define-fun .def_956 () Bool (or call_mesi.garde_me4.next .def_955))
(define-fun .def_952 () Bool (= call_mesi.invalid_me call_mesi.ite27.next))
(define-fun .def_953 () Bool (or call_mesi.garde_me3.next .def_952))
(define-fun .def_947 () Bool (= call_mesi.invalid_me call_mesi.ite26.next))
(define-fun .def_950 () Bool (or call_mesi.garde_me2.next .def_947))
(define-fun .def_810 () Bool (not call_mesi.garde_me2.next))
(define-fun .def_948 () Bool (or .def_810 .def_947))
(define-fun .def_941 () Int (* (- 1) call_mesi.ite25.next))
(define-fun .def_942 () Int (+ call_mesi.invalid_me .def_941))
(define-fun .def_943 () Bool (= .def_942 1))
(define-fun .def_944 () Bool (or .def_839 .def_943))
(define-fun .def_939 () Bool (= call_mesi.invalid_me call_mesi.ite25.next))
(define-fun .def_940 () Bool (or call_mesi.garde_me1.next .def_939))
(define-fun .def_945 () Bool (and .def_940 .def_944))
(define-fun .def_949 () Bool (and .def_945 .def_948))
(define-fun .def_951 () Bool (and .def_949 .def_950))
(define-fun .def_954 () Bool (and .def_951 .def_953))
(define-fun .def_957 () Bool (and .def_954 .def_956))
(define-fun .def_934 () Bool (= call_mesi.shared_me call_mesi.ite20.next))
(define-fun .def_935 () Bool (or call_mesi.garde_me4.next .def_934))
(define-fun .def_931 () Bool (= call_mesi.shared_me call_mesi.ite19.next))
(define-fun .def_932 () Bool (or call_mesi.garde_me3.next .def_931))
(define-fun .def_923 () Bool (= call_mesi.shared_me call_mesi.ite18.next))
(define-fun .def_928 () Bool (or call_mesi.garde_me2.next .def_923))
(define-fun .def_925 () Bool (= call_mesi.shared_me call_mesi.ite17.next))
(define-fun .def_926 () Bool (or call_mesi.garde_me1.next .def_925))
(define-fun .def_924 () Bool (or .def_810 .def_923))
(define-fun .def_927 () Bool (and .def_924 .def_926))
(define-fun .def_929 () Bool (and .def_927 .def_928))
(define-fun .def_933 () Bool (and .def_929 .def_932))
(define-fun .def_936 () Bool (and .def_933 .def_935))
(define-fun .def_918 () Bool (= call_mesi.exclusive_me call_mesi.ite12.next))
(define-fun .def_919 () Bool (or call_mesi.garde_me4.next .def_918))
(define-fun .def_915 () Bool (= call_mesi.exclusive_me call_mesi.ite11.next))
(define-fun .def_916 () Bool (or call_mesi.garde_me3.next .def_915))
(define-fun .def_911 () Bool (= call_mesi.exclusive_me call_mesi.ite10.next))
(define-fun .def_912 () Bool (or call_mesi.garde_me2.next .def_911))
(define-fun .def_908 () Bool (= call_mesi.exclusive_me call_mesi.ite9.next))
(define-fun .def_909 () Bool (or call_mesi.garde_me1.next .def_908))
(define-fun .def_903 () Int (* (- 1) call_mesi.ite10.next))
(define-fun .def_904 () Int (+ call_mesi.exclusive_me .def_903))
(define-fun .def_905 () Bool (= .def_904 1))
(define-fun .def_906 () Bool (or .def_810 .def_905))
(define-fun .def_910 () Bool (and .def_906 .def_909))
(define-fun .def_913 () Bool (and .def_910 .def_912))
(define-fun .def_917 () Bool (and .def_913 .def_916))
(define-fun .def_920 () Bool (and .def_917 .def_919))
(define-fun .def_898 () Bool (= call_mesi.invalid_me call_mesi.ite29.next))
(define-fun .def_899 () Bool (or param_etat_me4.next .def_898))
(define-fun .def_895 () Bool (= call_mesi.ite28.next call_mesi.ite29.next))
(define-fun .def_875 () Bool (not param_etat_me4.next))
(define-fun .def_896 () Bool (or .def_875 .def_895))
(define-fun .def_891 () Bool (= call_mesi.shared_me call_mesi.ite21.next))
(define-fun .def_892 () Bool (or param_etat_me4.next .def_891))
(define-fun .def_888 () Bool (= call_mesi.ite20.next call_mesi.ite21.next))
(define-fun .def_889 () Bool (or .def_875 .def_888))
(define-fun .def_883 () Bool (= call_mesi.exclusive_me call_mesi.ite13.next))
(define-fun .def_884 () Bool (or param_etat_me4.next .def_883))
(define-fun .def_880 () Bool (= call_mesi.ite12.next call_mesi.ite13.next))
(define-fun .def_881 () Bool (or .def_875 .def_880))
(define-fun .def_874 () Bool (= call_mesi.ite4.next call_mesi.ite5.next))
(define-fun .def_876 () Bool (or .def_874 .def_875))
(define-fun .def_871 () Bool (= call_mesi.modified_me call_mesi.ite5.next))
(define-fun .def_873 () Bool (or .def_871 param_etat_me4.next))
(define-fun .def_877 () Bool (and .def_873 .def_876))
(define-fun .def_882 () Bool (and .def_877 .def_881))
(define-fun .def_885 () Bool (and .def_882 .def_884))
(define-fun .def_890 () Bool (and .def_885 .def_889))
(define-fun .def_893 () Bool (and .def_890 .def_892))
(define-fun .def_897 () Bool (and .def_893 .def_896))
(define-fun .def_900 () Bool (and .def_897 .def_899))
(define-fun .def_857 () Int (* (- 1) call_mesi.ite28.next))
(define-fun .def_862 () Int (+ call_mesi.invalid_me .def_857))
(define-fun .def_863 () Int (+ call_mesi.shared_me .def_862))
(define-fun .def_864 () Int (+ call_mesi.exclusive_me .def_863))
(define-fun .def_865 () Int (+ call_mesi.modified_me .def_864))
(define-fun .def_866 () Bool (= .def_865 1))
(define-fun .def_868 () Bool (or .def_866 .def_867))
(define-fun .def_843 () Int (* (- 1) call_mesi.ite27.next))
(define-fun .def_848 () Int (+ call_mesi.invalid_me .def_843))
(define-fun .def_849 () Int (+ call_mesi.shared_me .def_848))
(define-fun .def_850 () Int (+ call_mesi.exclusive_me .def_849))
(define-fun .def_851 () Int (+ call_mesi.modified_me .def_850))
(define-fun .def_852 () Bool (= .def_851 1))
(define-fun .def_854 () Bool (or .def_852 .def_853))
(define-fun .def_831 () Int (* (- 1) call_mesi.ite17.next))
(define-fun .def_835 () Int (+ call_mesi.shared_me .def_831))
(define-fun .def_836 () Int (+ call_mesi.exclusive_me .def_835))
(define-fun .def_837 () Int (+ call_mesi.modified_me .def_836))
(define-fun .def_838 () Bool (= .def_837 2))
(define-fun .def_840 () Bool (or .def_838 .def_839))
(define-fun .def_826 () Bool (= call_mesi.modified_me call_mesi.ite4.next))
(define-fun .def_828 () Bool (or .def_826 call_mesi.garde_me4.next))
(define-fun .def_821 () Bool (= call_mesi.modified_me call_mesi.ite3.next))
(define-fun .def_823 () Bool (or .def_821 call_mesi.garde_me3.next))
(define-fun .def_817 () Bool (= call_mesi.modified_me call_mesi.ite2.next))
(define-fun .def_818 () Bool (or call_mesi.garde_me2.next .def_817))
(define-fun .def_813 () Bool (= call_mesi.modified_me call_mesi.ite.next))
(define-fun .def_815 () Bool (or .def_813 call_mesi.garde_me1.next))
(define-fun .def_806 () Int (* (- 1) call_mesi.ite2.next))
(define-fun .def_807 () Int (+ call_mesi.modified_me .def_806))
(define-fun .def_808 () Bool (= .def_807 1))
(define-fun .def_811 () Bool (or .def_808 .def_810))
(define-fun .def_816 () Bool (and .def_811 .def_815))
(define-fun .def_819 () Bool (and .def_816 .def_818))
(define-fun .def_824 () Bool (and .def_819 .def_823))
(define-fun .def_829 () Bool (and .def_824 .def_828))
(define-fun .def_841 () Bool (and .def_829 .def_840))
(define-fun .def_855 () Bool (and .def_841 .def_854))
(define-fun .def_869 () Bool (and .def_855 .def_868))
(define-fun .def_901 () Bool (and .def_869 .def_900))
(define-fun .def_921 () Bool (and .def_901 .def_920))
(define-fun .def_937 () Bool (and .def_921 .def_936))
(define-fun .def_958 () Bool (and .def_937 .def_957))
(define-fun .def_967 () Bool (and .def_958 .def_966))
(define-fun .def_970 () Bool (and .def_967 .def_969))
(define-fun .def_982 () Bool (and .def_970 .def_981))
(define-fun .def_993 () Bool (and .def_982 .def_992))
(define-fun .def_997 () Bool (and .def_993 .def_996))
(define-fun .def_1001 () Bool (and .def_997 .def_1000))
(define-fun .def_1005 () Bool (and .def_1001 .def_1004))
(define-fun .def_1009 () Bool (and .def_1005 .def_1008))
(define-fun .def_1017 () Bool (and .def_1009 .def_1016))
(define-fun .def_1153 () Bool (and .def_1017 .def_1152))
(assert .def_1153)
